50
1 0 38
2 0 27
2 1 63
3 0 41
3 1 78
3 2 44
4 0 20
4 1 49
4 2 62
4 3 17
5 0 56
5 1 60
5 2 55
5 3 17
5 4 23
6 0 7
6 1 62
6 2 51
6 3 61
6 4 57
6 5 66
7 0 71
7 1 65
7 2 50
7 3 16
7 4 62
7 5 32
7 6 15
8 0 17
8 1 60
8 2 62
8 3 51
8 4 75
8 5 39
8 6 50
8 7 66
9 0 8
9 1 65
9 2 62
9 3 38
9 4 14
9 5 53
9 6 10
9 7 30
9 8 19
10 0 24
10 1 75
10 2 42
10 3 76
10 4 28
10 5 42
10 6 13
10 7 54
10 8 8
10 9 9
11 0 71
11 1 63
11 2 13
11 3 17
11 4 53
11 5 51
11 6 56
11 7 75
11 8 19
11 9 50
11 10 32
12 0 15
12 1 23
12 2 26
12 3 17
12 4 17
12 5 25
12 6 69
12 7 38
12 8 46
12 9 13
12 10 58
12 11 65
13 0 4
13 1 47
13 2 61
13 3 9
13 4 14
13 5 24
13 6 17
13 7 25
13 8 40
13 9 40
13 10 65
13 11 68
13 12 51
14 0 50
14 1 31
14 2 10
14 3 68
14 4 77
14 5 48
14 6 14
14 7 47
14 8 32
14 9 45
14 10 32
14 11 27
14 12 29
14 13 48
15 0 12
15 1 45
15 2 49
15 3 37
15 4 42
15 5 59
15 6 65
15 7 37
15 8 47
15 9 62
15 10 51
15 11 55
15 12 63
15 13 12
15 14 2
16 0 11
16 1 48
16 2 54
16 3 73
16 4 24
16 5 32
16 6 60
16 7 25
16 8 54
16 9 79
16 10 36
16 11 74
16 12 17
16 13 58
16 14 65
16 15 19
17 0 58
17 1 59
17 2 14
17 3 12
17 4 53
17 5 70
17 6 43
17 7 33
17 8 59
17 9 32
17 10 3
17 11 28
17 12 43
17 13 32
17 14 23
17 15 73
17 16 73
18 0 56
18 1 8
18 2 60
18 3 63
18 4 37
18 5 49
18 6 75
18 7 61
18 8 76
18 9 17
18 10 54
18 11 48
18 12 5
18 13 44
18 14 77
18 15 42
18 16 55
18 17 38
19 0 2
19 1 63
19 2 64
19 3 72
19 4 13
19 5 9
19 6 8
19 7 61
19 8 12
19 9 67
19 10 43
19 11 53
19 12 34
19 13 76
19 14 60
19 15 68
19 16 52
19 17 18
19 18 60
20 0 38
20 1 38
20 2 26
20 3 80
20 4 49
20 5 41
20 6 33
20 7 64
20 8 17
20 9 61
20 10 54
20 11 62
20 12 71
20 13 19
20 14 80
20 15 57
20 16 46
20 17 27
20 18 25
20 19 6
21 0 17
21 1 20
21 2 55
21 3 2
21 4 73
21 5 40
21 6 10
21 7 57
21 8 34
21 9 24
21 10 32
21 11 10
21 12 71
21 13 41
21 14 59
21 15 72
21 16 5
21 17 15
21 18 1
21 19 53
21 20 41
22 0 2
22 1 51
22 2 5
22 3 47
22 4 32
22 5 41
22 6 30
22 7 1
22 8 44
22 9 57
22 10 30
22 11 43
22 12 16
22 13 50
22 14 80
22 15 77
22 16 56
22 17 65
22 18 54
22 19 25
22 20 41
22 21 66
23 0 59
23 1 24
23 2 38
23 3 57
23 4 4
23 5 2
23 6 23
23 7 76
23 8 56
23 9 57
23 10 17
23 11 4
23 12 57
23 13 79
23 14 56
23 15 5
23 16 64
23 17 62
23 18 59
23 19 59
23 20 58
23 21 14
23 22 66
24 0 2
24 1 68
24 2 37
24 3 9
24 4 24
24 5 71
24 6 33
24 7 5
24 8 23
24 9 76
24 10 39
24 11 39
24 12 57
24 13 33
24 14 40
24 15 9
24 16 24
24 17 8
24 18 77
24 19 58
24 20 13
24 21 77
24 22 3
24 23 63
25 0 21
25 1 16
25 2 76
25 3 80
25 4 18
25 5 29
25 6 18
25 7 11
25 8 42
25 9 9
25 10 16
25 11 16
25 12 11
25 13 44
25 14 30
25 15 52
25 16 8
25 17 20
25 18 75
25 19 30
25 20 29
25 21 38
25 22 28
25 23 49
25 24 6
26 0 17
26 1 60
26 2 69
26 3 17
26 4 2
26 5 57
26 6 50
26 7 3
26 8 66
26 9 40
26 10 44
26 11 73
26 12 75
26 13 75
26 14 20
26 15 30
26 16 29
26 17 36
26 18 64
26 19 49
26 20 66
26 21 6
26 22 63
26 23 50
26 24 13
26 25 20
27 0 39
27 1 65
27 2 6
27 3 59
27 4 23
27 5 54
27 6 26
27 7 22
27 8 56
27 9 69
27 10 76
27 11 32
27 12 39
27 13 2
27 14 73
27 15 63
27 16 49
27 17 62
27 18 39
27 19 80
27 20 20
27 21 76
27 22 10
27 23 35
27 24 76
27 25 8
27 26 54
28 0 80
28 1 58
28 2 51
28 3 10
28 4 46
28 5 49
28 6 18
28 7 31
28 8 44
28 9 3
28 10 19
28 11 55
28 12 69
28 13 79
28 14 47
28 15 46
28 16 22
28 17 65
28 18 78
28 19 47
28 20 69
28 21 25
28 22 36
28 23 21
28 24 7
28 25 10
28 26 3
28 27 65
29 0 59
29 1 67
29 2 41
29 3 62
29 4 50
29 5 25
29 6 57
29 7 34
29 8 79
29 9 76
29 10 5
29 11 59
29 12 62
29 13 13
29 14 8
29 15 28
29 16 34
29 17 4
29 18 5
29 19 33
29 20 58
29 21 9
29 22 11
29 23 64
29 24 73
29 25 48
29 26 52
29 27 55
29 28 9
30 0 55
30 1 27
30 2 48
30 3 50
30 4 56
30 5 54
30 6 35
30 7 69
30 8 75
30 9 52
30 10 7
30 11 74
30 12 74
30 13 51
30 14 49
30 15 75
30 16 17
30 17 11
30 18 4
30 19 60
30 20 61
30 21 49
30 22 46
30 23 62
30 24 71
30 25 58
30 26 11
30 27 57
30 28 11
30 29 45
31 0 20
31 1 63
31 2 35
31 3 63
31 4 24
31 5 45
31 6 57
31 7 59
31 8 44
31 9 36
31 10 35
31 11 72
31 12 65
31 13 45
31 14 14
31 15 32
31 16 38
31 17 37
31 18 70
31 19 19
31 20 17
31 21 4
31 22 28
31 23 47
31 24 51
31 25 37
31 26 42
31 27 21
31 28 67
31 29 76
31 30 18
32 0 23
32 1 32
32 2 71
32 3 42
32 4 5
32 5 30
32 6 45
32 7 72
32 8 49
32 9 31
32 10 27
32 11 79
32 12 75
32 13 67
32 14 18
32 15 32
32 16 32
32 17 59
32 18 10
32 19 76
32 20 55
32 21 60
32 22 18
32 23 29
32 24 62
32 25 48
32 26 22
32 27 17
32 28 2
32 29 52
32 30 54
32 31 57
33 0 13
33 1 36
33 2 60
33 3 46
33 4 70
33 5 56
33 6 46
33 7 6
33 8 25
33 9 49
33 10 10
33 11 1
33 12 54
33 13 70
33 14 64
33 15 23
33 16 53
33 17 49
33 18 34
33 19 14
33 20 41
33 21 4
33 22 32
33 23 47
33 24 65
33 25 60
33 26 43
33 27 67
33 28 35
33 29 56
33 30 60
33 31 69
33 32 23
34 0 41
34 1 55
34 2 56
34 3 39
34 4 48
34 5 76
34 6 57
34 7 36
34 8 11
34 9 37
34 10 9
34 11 71
34 12 78
34 13 13
34 14 36
34 15 53
34 16 5
34 17 3
34 18 17
34 19 1
34 20 64
34 21 19
34 22 72
34 23 47
34 24 48
34 25 65
34 26 74
34 27 38
34 28 39
34 29 12
34 30 25
34 31 65
34 32 30
34 33 24
35 0 24
35 1 2
35 2 54
35 3 62
35 4 67
35 5 44
35 6 2
35 7 35
35 8 73
35 9 48
35 10 42
35 11 44
35 12 20
35 13 50
35 14 55
35 15 12
35 16 39
35 17 2
35 18 80
35 19 30
35 20 20
35 21 52
35 22 61
35 23 25
35 24 38
35 25 4
35 26 56
35 27 36
35 28 76
35 29 35
35 30 35
35 31 78
35 32 5
35 33 76
35 34 59
36 0 28
36 1 80
36 2 41
36 3 35
36 4 80
36 5 5
36 6 40
36 7 3
36 8 78
36 9 64
36 10 2
36 11 51
36 12 74
36 13 9
36 14 38
36 15 61
36 16 68
36 17 37
36 18 49
36 19 71
36 20 26
36 21 75
36 22 38
36 23 16
36 24 19
36 25 65
36 26 59
36 27 45
36 28 21
36 29 64
36 30 35
36 31 57
36 32 44
36 33 8
36 34 2
36 35 38
37 0 28
37 1 2
37 2 28
37 3 11
37 4 52
37 5 66
37 6 75
37 7 42
37 8 72
37 9 67
37 10 51
37 11 22
37 12 39
37 13 21
37 14 44
37 15 43
37 16 47
37 17 7
37 18 65
37 19 69
37 20 36
37 21 1
37 22 52
37 23 4
37 24 22
37 25 30
37 26 61
37 27 44
37 28 19
37 29 28
37 30 74
37 31 13
37 32 31
37 33 8
37 34 30
37 35 37
37 36 31
38 0 45
38 1 39
38 2 22
38 3 29
38 4 72
38 5 53
38 6 59
38 7 23
38 8 7
38 9 34
38 10 11
38 11 57
38 12 75
38 13 24
38 14 41
38 15 67
38 16 52
38 17 66
38 18 41
38 19 7
38 20 50
38 21 62
38 22 8
38 23 53
38 24 12
38 25 51
38 26 21
38 27 3
38 28 20
38 29 55
38 30 42
38 31 79
38 32 53
38 33 16
38 34 11
38 35 63
38 36 76
38 37 72
39 0 13
39 1 69
39 2 2
39 3 40
39 4 65
39 5 47
39 6 51
39 7 63
39 8 68
39 9 29
39 10 54
39 11 2
39 12 60
39 13 13
39 14 21
39 15 16
39 16 7
39 17 74
39 18 3
39 19 47
39 20 22
39 21 60
39 22 3
39 23 55
39 24 53
39 25 51
39 26 10
39 27 37
39 28 39
39 29 19
39 30 78
39 31 30
39 32 32
39 33 69
39 34 60
39 35 54
39 36 30
39 37 64
39 38 31
40 0 8
40 1 26
40 2 47
40 3 68
40 4 48
40 5 57
40 6 60
40 7 61
40 8 14
40 9 74
40 10 23
40 11 42
40 12 45
40 13 23
40 14 67
40 15 41
40 16 38
40 17 73
40 18 31
40 19 16
40 20 72
40 21 65
40 22 59
40 23 13
40 24 10
40 25 77
40 26 24
40 27 30
40 28 1
40 29 13
40 30 1
40 31 26
40 32 34
40 33 3
40 34 8
40 35 49
40 36 65
40 37 30
40 38 24
40 39 22
41 0 42
41 1 56
41 2 51
41 3 5
41 4 13
41 5 70
41 6 74
41 7 14
41 8 20
41 9 74
41 10 37
41 11 20
41 12 62
41 13 44
41 14 58
41 15 69
41 16 52
41 17 77
41 18 4
41 19 33
41 20 2
41 21 80
41 22 30
41 23 39
41 24 65
41 25 56
41 26 72
41 27 1
41 28 23
41 29 53
41 30 66
41 31 44
41 32 21
41 33 5
41 34 74
41 35 75
41 36 18
41 37 6
41 38 25
41 39 62
41 40 56
42 0 74
42 1 59
42 2 58
42 3 34
42 4 5
42 5 37
42 6 36
42 7 26
42 8 3
42 9 16
42 10 50
42 11 12
42 12 5
42 13 78
42 14 52
42 15 39
42 16 37
42 17 64
42 18 49
42 19 34
42 20 24
42 21 32
42 22 67
42 23 77
42 24 6
42 25 39
42 26 10
42 27 12
42 28 15
42 29 34
42 30 27
42 31 35
42 32 41
42 33 9
42 34 1
42 35 52
42 36 38
42 37 30
42 38 21
42 39 60
42 40 16
42 41 36
43 0 79
43 1 12
43 2 64
43 3 14
43 4 21
43 5 23
43 6 72
43 7 72
43 8 29
43 9 61
43 10 66
43 11 36
43 12 61
43 13 11
43 14 16
43 15 40
43 16 24
43 17 31
43 18 61
43 19 15
43 20 79
43 21 32
43 22 53
43 23 73
43 24 29
43 25 9
43 26 51
43 27 43
43 28 37
43 29 18
43 30 65
43 31 47
43 32 43
43 33 40
43 34 67
43 35 5
43 36 29
43 37 7
43 38 67
43 39 70
43 40 43
43 41 35
43 42 30
44 0 20
44 1 22
44 2 57
44 3 13
44 4 33
44 5 51
44 6 64
44 7 40
44 8 37
44 9 71
44 10 19
44 11 46
44 12 25
44 13 66
44 14 60
44 15 1
44 16 1
44 17 80
44 18 10
44 19 35
44 20 63
44 21 27
44 22 65
44 23 71
44 24 68
44 25 37
44 26 14
44 27 28
44 28 40
44 29 51
44 30 43
44 31 54
44 32 24
44 33 43
44 34 28
44 35 67
44 36 24
44 37 62
44 38 6
44 39 9
44 40 33
44 41 12
44 42 60
44 43 49
45 0 61
45 1 6
45 2 14
45 3 44
45 4 25
45 5 38
45 6 25
45 7 61
45 8 11
45 9 27
45 10 16
45 11 53
45 12 22
45 13 38
45 14 56
45 15 45
45 16 78
45 17 25
45 18 46
45 19 74
45 20 58
45 21 66
45 22 76
45 23 18
45 24 23
45 25 57
45 26 12
45 27 21
45 28 75
45 29 57
45 30 20
45 31 16
45 32 27
45 33 33
45 34 9
45 35 51
45 36 62
45 37 5
45 38 40
45 39 43
45 40 74
45 41 24
45 42 61
45 43 62
45 44 80
46 0 49
46 1 1
46 2 52
46 3 30
46 4 18
46 5 65
46 6 54
46 7 53
46 8 34
46 9 76
46 10 21
46 11 79
46 12 57
46 13 47
46 14 38
46 15 7
46 16 22
46 17 1
46 18 58
46 19 16
46 20 50
46 21 60
46 22 1
46 23 79
46 24 33
46 25 60
46 26 33
46 27 11
46 28 55
46 29 73
46 30 48
46 31 5
46 32 23
46 33 11
46 34 56
46 35 2
46 36 79
46 37 59
46 38 62
46 39 58
46 40 47
46 41 66
46 42 66
46 43 68
46 44 14
46 45 2
47 0 2
47 1 36
47 2 15
47 3 53
47 4 34
47 5 75
47 6 71
47 7 17
47 8 48
47 9 13
47 10 46
47 11 64
47 12 74
47 13 66
47 14 51
47 15 65
47 16 23
47 17 15
47 18 3
47 19 12
47 20 48
47 21 74
47 22 5
47 23 34
47 24 20
47 25 28
47 26 29
47 27 35
47 28 46
47 29 49
47 30 51
47 31 43
47 32 68
47 33 44
47 34 30
47 35 44
47 36 27
47 37 6
47 38 52
47 39 71
47 40 40
47 41 46
47 42 68
47 43 38
47 44 26
47 45 41
47 46 60
48 0 66
48 1 45
48 2 26
48 3 31
48 4 45
48 5 79
48 6 14
48 7 53
48 8 79
48 9 18
48 10 19
48 11 47
48 12 38
48 13 68
48 14 56
48 15 45
48 16 4
48 17 36
48 18 23
48 19 19
48 20 19
48 21 14
48 22 31
48 23 50
48 24 74
48 25 67
48 26 76
48 27 64
48 28 12
48 29 46
48 30 49
48 31 8
48 32 66
48 33 55
48 34 73
48 35 64
48 36 64
48 37 11
48 38 26
48 39 53
48 40 73
48 41 67
48 42 61
48 43 56
48 44 65
48 45 52
48 46 49
48 47 27
49 0 63
49 1 66
49 2 24
49 3 42
49 4 65
49 5 20
49 6 25
49 7 48
49 8 44
49 9 58
49 10 70
49 11 1
49 12 8
49 13 11
49 14 66
49 15 8
49 16 55
49 17 27
49 18 32
49 19 47
49 20 41
49 21 68
49 22 68
49 23 41
49 24 43
49 25 8
49 26 28
49 27 58
49 28 78
49 29 36
49 30 27
49 31 9
49 32 50
49 33 26
49 34 34
49 35 23
49 36 30
49 37 27
49 38 34
49 39 32
49 40 44
49 41 7
49 42 18
49 43 12
49 44 75
49 45 1
49 46 44
49 47 32
49 48 53
